unsat
( c100
  c1001
  c1002
  c1005
  c1006
  c1009
  c101
  c1010
  c1013
  c1014
  c1017
  c1018
  c1021
  c1022
  c1030
  c1031
  c1034
  c1035
  c1038
  c1042
  c1043
  c1046
  c1047
  c105
  c1050
  c1051
  c1054
  c1055
  c1058
  c1059
  c1067
  c1068
  c1071
  c1072
  c1075
  c1076
  c1079
  c1083
  c1084
  c1087
  c1088
  c1091
  c1092
  c1095
  c1096
  c1104
  c1105
  c1108
  c1109
  c1112
  c1113
  c1116
  c1117
  c112
  c1120
  c1124
  c1125
  c1128
  c1129
  c1132
  c1133
  c1141
  c1142
  c1145
  c1146
  c1149
  c1150
  c1153
  c1154
  c1157
  c1158
  c1161
  c1165
  c1166
  c1169
  c117
  c1170
  c1178
  c1179
  c118
  c1182
  c1183
  c1186
  c1187
  c119
  c1190
  c1191
  c1194
  c1195
  c1198
  c1199
  c120
  c1202
  c1206
  c1207
  c121
  c1216
  c1217
  c1219
  c122
  c1220
  c1221
  c1224
  c1225
  c1226
  c1228
  c1229
  c123
  c1230
  c1233
  c1234
  c1238
  c1239
  c1240
  c1243
  c1244
  c1245
  c1247
  c1248
  c1249
  c1252
  c1253
  c1257
  c1258
  c1259
  c1262
  c1263
  c1264
  c1266
  c1267
  c1268
  c1271
  c1272
  c1276
  c1277
  c1278
  c1281
  c1282
  c1283
  c1285
  c1286
  c1287
  c1290
  c1291
  c1295
  c1296
  c1297
  c1300
  c1301
  c1302
  c1304
  c1305
  c1306
  c1309
  c1310
  c1314
  c1315
  c1316
  c1319
  c1320
  c1321
  c1323
  c1324
  c1325
  c1328
  c1329
  c1333
  c1334
  c1342
  c1343
  c1344
  c1347
  c1348
  c1349
  c1351
  c1352
  c1353
  c1356
  c1357
  c1362
  c1363
  c1365
  c1366
  c1367
  c1370
  c1371
  c1372
  c1374
  c1375
  c1376
  c1379
  c138
  c1380
  c1384
  c1385
  c1386
  c1389
  c139
  c1390
  c1391
  c1393
  c1394
  c1395
  c1398
  c1399
  c140
  c1403
  c1404
  c1405
  c1408
  c1409
  c141
  c1410
  c1412
  c1413
  c1414
  c1417
  c1418
  c142
  c1422
  c1423
  c1424
  c1427
  c1428
  c1429
  c143
  c1431
  c1432
  c1433
  c1436
  c1437
  c144
  c1441
  c1442
  c1443
  c1446
  c1447
  c1448
  c1450
  c1451
  c1452
  c1455
  c1456
  c1460
  c1461
  c1469
  c1470
  c1471
  c1474
  c1475
  c1476
  c1478
  c1479
  c1480
  c1483
  c1484
  c1488
  c1489
  c1490
  c1493
  c1494
  c1495
  c1497
  c1498
  c1499
  c1502
  c1503
  c1508
  c1509
  c151
  c1511
  c1512
  c1513
  c1516
  c1517
  c1518
  c152
  c1520
  c1521
  c1522
  c1525
  c1526
  c153
  c1530
  c1531
  c1532
  c1535
  c1536
  c1537
  c1539
  c154
  c1540
  c1541
  c1544
  c1545
  c1549
  c155
  c1550
  c1551
  c1554
  c1555
  c1556
  c1558
  c1559
  c156
  c1560
  c1563
  c1564
  c1568
  c1569
  c157
  c1570
  c1573
  c1574
  c1575
  c1577
  c1578
  c1579
  c158
  c1582
  c1583
  c1587
  c1588
  c159
  c1596
  c1597
  c1598
  c160
  c1601
  c1602
  c1603
  c1605
  c1606
  c1607
  c161
  c1610
  c1611
  c1615
  c1616
  c1617
  c162
  c1620
  c1621
  c1622
  c1624
  c1625
  c1626
  c1629
  c163
  c1630
  c1634
  c1635
  c1636
  c1639
  c164
  c1640
  c1641
  c1643
  c1644
  c1645
  c1648
  c1649
  c1654
  c1655
  c1657
  c1658
  c1659
  c1662
  c1663
  c1664
  c1666
  c1667
  c1668
  c1671
  c1672
  c1676
  c1677
  c1678
  c1681
  c1682
  c1683
  c1685
  c1686
  c1687
  c1690
  c1691
  c1695
  c1696
  c1697
  c1700
  c1701
  c1702
  c1704
  c1705
  c1706
  c1709
  c1710
  c1714
  c1715
  c172
  c1723
  c1724
  c1725
  c1728
  c1729
  c173
  c1730
  c1732
  c1733
  c1734
  c1737
  c1738
  c174
  c1742
  c1743
  c1744
  c1747
  c1748
  c1749
  c175
  c1751
  c1752
  c1753
  c1756
  c1757
  c176
  c1761
  c1762
  c1763
  c1766
  c1767
  c1768
  c177
  c1770
  c1771
  c1772
  c1775
  c1776
  c178
  c1780
  c1781
  c1782
  c1785
  c1786
  c1787
  c1789
  c179
  c1790
  c1791
  c1794
  c1795
  c180
  c1800
  c1801
  c1803
  c1804
  c1805
  c1808
  c1809
  c181
  c1810
  c1812
  c1813
  c1814
  c1817
  c1818
  c1822
  c1823
  c1824
  c1827
  c1828
  c1829
  c1831
  c1832
  c1833
  c1836
  c1837
  c1841
  c1842
  c1850
  c1851
  c1852
  c1855
  c1856
  c1857
  c1859
  c1860
  c1861
  c1864
  c1865
  c1869
  c1870
  c1871
  c1874
  c1875
  c1876
  c1878
  c1879
  c1880
  c1883
  c1884
  c1888
  c1889
  c189
  c1890
  c1893
  c1894
  c1895
  c1897
  c1898
  c1899
  c190
  c1902
  c1903
  c1907
  c1908
  c1909
  c191
  c1912
  c1913
  c1914
  c1916
  c1917
  c1918
  c192
  c1921
  c1922
  c1926
  c1927
  c1928
  c193
  c1931
  c1932
  c1933
  c1935
  c1936
  c1937
  c194
  c1940
  c1941
  c1946
  c1947
  c1949
  c195
  c1950
  c1951
  c1954
  c1955
  c1956
  c1958
  c1959
  c196
  c1960
  c1963
  c1964
  c1968
  c1969
  c197
  c1977
  c1978
  c1979
  c198
  c1982
  c1983
  c1984
  c1986
  c1987
  c1988
  c199
  c1991
  c1992
  c1996
  c1997
  c1998
  c2
  c200
  c2001
  c2002
  c2003
  c2005
  c2006
  c2007
  c201
  c2010
  c2011
  c2015
  c2016
  c2017
  c202
  c2020
  c2021
  c2022
  c2024
  c2025
  c2026
  c2029
  c203
  c2030
  c2034
  c2035
  c2036
  c2039
  c204
  c2040
  c2041
  c2043
  c2044
  c2045
  c2048
  c2049
  c205
  c2053
  c2054
  c2055
  c2058
  c2059
  c206
  c2060
  c2062
  c2063
  c2064
  c2067
  c2068
  c207
  c2072
  c2073
  c2074
  c2077
  c2078
  c2079
  c208
  c2081
  c2082
  c2083
  c2086
  c2087
  c2092
  c2093
  c2095
  c2096
  c210
  c2104
  c2105
  c2107
  c2108
  c211
  c2110
  c2111
  c2113
  c2114
  c2116
  c2117
  c213
  c214
  c2148
  c2149
  c2150
  c2151
  c2152
  c2153
  c2159
  c2165
  c2172
  c2174
  c2175
  c2178
  c2179
  c2182
  c2183
  c2186
  c2187
  c2190
  c2191
  c2194
  c2195
  c2198
  c2199
  c2202
  c2203
  c2204
  c2207
  c2208
  c2209
  c2212
  c2213
  c2214
  c2217
  c2218
  c2219
  c2222
  c2223
  c2224
  c2227
  c2228
  c2229
  c2232
  c2233
  c2234
  c2237
  c2238
  c2239
  c2242
  c2243
  c2244
  c2247
  c2248
  c2249
  c2252
  c2253
  c2254
  c2257
  c2258
  c2259
  c2262
  c2263
  c2264
  c2269
  c2271
  c2273
  c230
  c2303
  c2304
  c2305
  c2306
  c2307
  c2308
  c2309
  c231
  c2310
  c2311
  c2312
  c2313
  c2314
  c2315
  c2316
  c2317
  c2318
  c2319
  c232
  c2320
  c2321
  c2322
  c2323
  c2324
  c2325
  c2328
  c233
  c2331
  c2334
  c2335
  c2336
  c2337
  c2338
  c2339
  c234
  c2340
  c2341
  c2342
  c2343
  c2344
  c2345
  c2346
  c2347
  c2348
  c235
  c236
  c2366
  c237
  c2370
  c2374
  c2378
  c238
  c2382
  c2386
  c239
  c2390
  c2394
  c2397
  c2398
  c2399
  c240
  c2402
  c2403
  c2404
  c2407
  c2408
  c2409
  c241
  c2412
  c2413
  c2414
  c2417
  c2418
  c2419
  c242
  c2422
  c2423
  c2424
  c2427
  c2428
  c2429
  c243
  c2433
  c2437
  c244
  c2441
  c2445
  c2446
  c2447
  c2448
  c2449
  c245
  c2450
  c2451
  c2452
  c2453
  c2454
  c2455
  c2456
  c2457
  c2458
  c2459
  c246
  c2460
  c2461
  c2462
  c2463
  c2464
  c2465
  c2466
  c2467
  c2468
  c2469
  c248
  c249
  c2498
  c250
  c2504
  c2507
  c2510
  c2513
  c2516
  c2519
  c252
  c2522
  c2523
  c2524
  c2525
  c2526
  c2527
  c253
  c2531
  c2537
  c254
  c2540
  c2543
  c2546
  c2549
  c2552
  c2553
  c2554
  c2555
  c2556
  c2558
  c256
  c2561
  c2564
  c257
  c2570
  c2573
  c2576
  c2579
  c258
  c2582
  c2583
  c2584
  c2585
  c2587
  c2588
  c2591
  c2594
  c2597
  c260
  c2603
  c2606
  c2609
  c261
  c2612
  c2613
  c2614
  c2616
  c2617
  c2618
  c262
  c2621
  c2624
  c2627
  c2630
  c2636
  c2639
  c264
  c2642
  c2643
  c2645
  c2646
  c2647
  c2648
  c265
  c2651
  c2654
  c2657
  c266
  c2660
  c2663
  c2669
  c2672
  c2674
  c2675
  c2676
  c2677
  c2678
  c268
  c2681
  c2684
  c2687
  c269
  c2690
  c2693
  c2696
  c270
  c2703
  c2704
  c2705
  c2706
  c2707
  c2708
  c2712
  c2715
  c2718
  c272
  c2721
  c2722
  c2725
  c2728
  c273
  c2731
  c2734
  c2735
  c2736
  c2739
  c274
  c2742
  c2745
  c2748
  c2751
  c2752
  c2753
  c2754
  c2757
  c276
  c2760
  c2763
  c2766
  c2769
  c277
  c2772
  c2773
  c2774
  c2775
  c2776
  c2779
  c2782
  c2785
  c2788
  c2791
  c2794
  c2797
  c2798
  c2799
  c28
  c2800
  c2801
  c2802
  c2805
  c2808
  c281
  c2811
  c2814
  c2817
  c282
  c2820
  c2823
  c2827
  c2831
  c2832
  c2833
  c2834
  c2835
  c2836
  c2837
  c2838
  c2839
  c2840
  c2841
  c2842
  c2843
  c2844
  c2845
  c2846
  c2847
  c2848
  c2849
  c2850
  c2851
  c2852
  c2853
  c2854
  c2855
  c2856
  c2857
  c2858
  c2859
  c286
  c2860
  c2861
  c2862
  c2863
  c2864
  c2865
  c2866
  c287
  c2889
  c2892
  c2893
  c2896
  c2897
  c2900
  c2901
  c2904
  c2905
  c2908
  c2909
  c291
  c2912
  c2913
  c2916
  c2917
  c292
  c2921
  c2922
  c2926
  c2927
  c2931
  c2932
  c2936
  c2937
  c2941
  c2942
  c2946
  c2947
  c2951
  c2952
  c2957
  c2958
  c2959
  c296
  c2965
  c2966
  c2967
  c297
  c2973
  c2974
  c2975
  c2981
  c2982
  c2983
  c2989
  c2990
  c2991
  c2993
  c2994
  c2996
  c2997
  c2999
  c3000
  c3002
  c3003
  c3006
  c3008
  c301
  c3010
  c3012
  c3014
  c3017
  c3018
  c302
  c3023
  c3024
  c3025
  c3026
  c3027
  c3028
  c3029
  c3030
  c3031
  c3032
  c3033
  c3034
  c3035
  c3036
  c3037
  c3038
  c3039
  c3040
  c3041
  c3042
  c3043
  c3044
  c3045
  c3046
  c3047
  c3048
  c306
  c3066
  c3068
  c307
  c3073
  c3074
  c3077
  c3078
  c3081
  c3082
  c3085
  c3086
  c3089
  c3090
  c3093
  c3094
  c3097
  c3098
  c3099
  c3100
  c3101
  c3102
  c3105
  c3106
  c3107
  c311
  c3114
  c3115
  c3118
  c3119
  c312
  c3122
  c3123
  c3126
  c3127
  c313
  c3130
  c3131
  c3134
  c3135
  c3136
  c3137
  c3138
  c3140
  c3142
  c3143
  c3144
  c3147
  c3148
  c315
  c3155
  c3156
  c3159
  c316
  c3160
  c3163
  c3164
  c3167
  c3168
  c317
  c3171
  c3172
  c3173
  c3174
  c3176
  c3177
  c3179
  c3180
  c3181
  c3184
  c3185
  c3188
  c3189
  c319
  c3196
  c3197
  c320
  c3200
  c3201
  c3204
  c3205
  c3208
  c3209
  c321
  c3210
  c3212
  c3213
  c3214
  c3216
  c3217
  c3218
  c3221
  c3222
  c3225
  c3226
  c3229
  c323
  c3230
  c3237
  c3238
  c324
  c3241
  c3242
  c3245
  c3246
  c3248
  c3249
  c325
  c3250
  c3251
  c3253
  c3254
  c3255
  c3258
  c3259
  c3262
  c3263
  c3266
  c3267
  c327
  c3270
  c3271
  c3278
  c3279
  c328
  c3282
  c3284
  c3285
  c3286
  c3287
  c3288
  c329
  c3290
  c3291
  c3292
  c3295
  c3296
  c3299
  c3300
  c3303
  c3304
  c3307
  c3308
  c331
  c3311
  c3312
  c3314
  c332
  c3320
  c3321
  c3322
  c3323
  c3324
  c3325
  c333
  c3333
  c3334
  c3338
  c3342
  c3343
  c3346
  c3347
  c3348
  c3352
  c3353
  c3357
  c3361
  c3365
  c3366
  c3367
  c3371
  c3372
  c3376
  c3380
  c3381
  c3384
  c3385
  c3386
  c3390
  c3391
  c3395
  c3400
  c3403
  c3404
  c3405
  c3409
  c3410
  c3414
  c3423
  c3424
  c3428
  c3429
  c3433
  c3442
  c3443
  c3446
  c3447
  c3448
  c3449
  c3450
  c3451
  c3456
  c3457
  c3471
  c3479
  c3480
  c3484
  c3488
  c3489
  c3492
  c3493
  c3494
  c3498
  c3499
  c3503
  c3507
  c3508
  c3511
  c3512
  c3513
  c3517
  c3518
  c3522
  c3526
  c3527
  c3530
  c3531
  c3532
  c3536
  c3537
  c3541
  c3545
  c3546
  c3549
  c3550
  c3551
  c3555
  c3556
  c3560
  c3569
  c3570
  c3573
  c3574
  c3575
  c3576
  c3577
  c3579
  c3583
  c3584
  c359
  c3593
  c3596
  c3598
  c360
  c3602
  c3603
  c361
  c3617
  c362
  c3625
  c3626
  c363
  c3630
  c3634
  c3635
  c3638
  c3639
  c364
  c3640
  c3644
  c3645
  c3649
  c365
  c3654
  c3657
  c3658
  c3659
  c366
  c3663
  c3664
  c3668
  c367
  c3672
  c3673
  c3676
  c3677
  c3678
  c368
  c3682
  c3683
  c3687
  c369
  c3691
  c3695
  c3696
  c3697
  c370
  c3700
  c3701
  c3702
  c3703
  c3705
  c3706
  c371
  c3710
  c3711
  c372
  c3725
  c3729
  c3730
  c374
  c3744
  c3748
  c3749
  c375
  c376
  c3763
  c377
  c3771
  c3772
  c3776
  c378
  c3780
  c3781
  c3784
  c3785
  c3786
  c379
  c3790
  c3791
  c3795
  c3799
  c38
  c380
  c3800
  c3803
  c3804
  c3805
  c3809
  c3810
  c3814
  c3818
  c3819
  c382
  c3822
  c3823
  c3824
  c3827
  c3828
  c3829
  c3831
  c3832
  c3833
  c3837
  c3838
  c3846
  c385
  c3850
  c3852
  c3856
  c3857
  c386
  c3871
  c3875
  c3876
  c388
  c3884
  c3888
  c389
  c3890
  c3894
  c3895
  c3909
  c391
  c3917
  c3918
  c392
  c3922
  c3926
  c3927
  c3930
  c3931
  c3932
  c3936
  c3937
  c394
  c3941
  c3945
  c3946
  c3949
  c395
  c3950
  c3951
  c3954
  c3955
  c3957
  c3958
  c3959
  c3960
  c3964
  c3965
  c397
  c3973
  c3974
  c3977
  c3979
  c398
  c3983
  c3984
  c3998
  c40
  c400
  c4002
  c4003
  c401
  c4017
  c4021
  c4022
  c403
  c4036
  c404
  c4040
  c4041
  c4055
  c4063
  c4064
  c4068
  c4072
  c4073
  c4076
  c4077
  c4078
  c4081
  c4083
  c4084
  c4085
  c4086
  c4087
  c4091
  c4092
  c41
  c4100
  c4101
  c4104
  c4106
  c4110
  c4111
  c4119
  c412
  c4120
  c4123
  c4125
  c4129
  c413
  c4130
  c4139
  c4142
  c4144
  c4148
  c4149
  c415
  c4163
  c4167
  c4168
  c418
  c4182
  c4186
  c4187
  c419
  c4201
  c4209
  c421
  c4210
  c4211
  c4212
  c4213
  c4214
  c4217
  c422
  c4220
  c4223
  c4226
  c4229
  c4230
  c4231
  c4232
  c4233
  c4234
  c4235
  c4236
  c4237
  c4238
  c4239
  c424
  c4240
  c4241
  c4242
  c4243
  c4244
  c4245
  c4246
  c4247
  c4248
  c4249
  c425
  c4250
  c4251
  c4252
  c4253
  c4254
  c4255
  c4256
  c4257
  c4258
  c427
  c428
  c4284
  c4287
  c4288
  c4291
  c4292
  c4295
  c4296
  c4299
  c43
  c430
  c4300
  c4303
  c4304
  c4307
  c4308
  c431
  c4311
  c4312
  c4316
  c4317
  c4321
  c4322
  c4326
  c4327
  c433
  c4331
  c4332
  c4336
  c4337
  c434
  c4341
  c4342
  c4346
  c4347
  c4351
  c4352
  c4356
  c4357
  c4361
  c4362
  c4366
  c4367
  c4368
  c4369
  c4371
  c4372
  c4374
  c4375
  c4377
  c4378
  c4379
  c4381
  c4382
  c4383
  c4384
  c4385
  c4386
  c4387
  c4388
  c4389
  c4390
  c4391
  c4392
  c4393
  c4394
  c4395
  c4396
  c4397
  c4398
  c4399
  c44
  c4400
  c4401
  c4402
  c4403
  c4404
  c4405
  c4406
  c4407
  c4408
  c4409
  c442
  c443
  c4438
  c4439
  c4440
  c4441
  c4442
  c4443
  c4444
  c4445
  c4446
  c4449
  c445
  c4450
  c4453
  c4454
  c4457
  c4458
  c446
  c4461
  c4462
  c4465
  c4466
  c4469
  c4470
  c4471
  c4472
  c4474
  c4475
  c4476
  c4477
  c4478
  c4479
  c448
  c4480
  c4481
  c4482
  c4484
  c4485
  c4486
  c4487
  c4488
  c4490
  c4491
  c4492
  c4495
  c4496
  c4497
  c4498
  c4499
  c45
  c4502
  c4503
  c4504
  c4505
  c4506
  c4509
  c451
  c4510
  c4511
  c4512
  c4513
  c4516
  c4517
  c4518
  c4519
  c452
  c4520
  c4523
  c4524
  c4525
  c4526
  c4527
  c4530
  c4531
  c4532
  c4533
  c4534
  c4535
  c4536
  c4537
  c4538
  c4539
  c454
  c4540
  c4541
  c4542
  c4543
  c4544
  c4546
  c4547
  c4548
  c455
  c4552
  c4553
  c4554
  c4555
  c4556
  c4557
  c4558
  c4559
  c4561
  c4562
  c4563
  c4564
  c4565
  c4566
  c4567
  c4568
  c4569
  c457
  c4570
  c4573
  c4574
  c4575
  c4576
  c4577
  c4578
  c4579
  c458
  c4580
  c4581
  c4582
  c4583
  c4584
  c4585
  c4586
  c4588
  c4589
  c4592
  c4593
  c4594
  c4595
  c4596
  c4597
  c4598
  c4599
  c46
  c460
  c4600
  c4601
  c4602
  c4603
  c4604
  c4606
  c4609
  c461
  c4610
  c4612
  c4613
  c4614
  c4615
  c4616
  c4617
  c4618
  c4619
  c4620
  c4621
  c4622
  c4623
  c4625
  c4626
  c4629
  c463
  c4630
  c4631
  c4632
  c4633
  c4634
  c4635
  c4636
  c4637
  c4638
  c4639
  c464
  c4640
  c4641
  c4642
  c4643
  c4644
  c4647
  c4648
  c4649
  c4650
  c4651
  c4652
  c4653
  c4654
  c4655
  c4656
  c4657
  c4658
  c4659
  c4660
  c4661
  c4663
  c4664
  c4665
  c4666
  c4667
  c4668
  c4669
  c4670
  c4671
  c4672
  c4673
  c4674
  c4676
  c4677
  c4678
  c4682
  c4684
  c4685
  c4686
  c4687
  c4688
  c4689
  c4690
  c4691
  c4692
  c4693
  c4694
  c4695
  c4699
  c47
  c4700
  c4701
  c4702
  c4703
  c4704
  c4705
  c4706
  c4707
  c4708
  c4709
  c4710
  c4711
  c4712
  c4713
  c4714
  c4715
  c4716
  c4717
  c472
  c4728
  c4729
  c473
  c4731
  c4732
  c4733
  c4734
  c4735
  c4736
  c4737
  c4738
  c4740
  c4741
  c4742
  c4743
  c4744
  c4745
  c4747
  c4748
  c4749
  c475
  c4752
  c4753
  c4754
  c4755
  c4756
  c4757
  c4758
  c4759
  c476
  c4760
  c4761
  c4762
  c4763
  c4764
  c4765
  c4767
  c4768
  c4770
  c4772
  c4773
  c4774
  c4775
  c4776
  c4777
  c4778
  c4779
  c478
  c4780
  c4781
  c4782
  c4783
  c4784
  c4785
  c4786
  c4788
  c479
  c4790
  c4791
  c4792
  c4793
  c4794
  c4795
  c4796
  c4797
  c4798
  c4799
  c48
  c4800
  c4801
  c4802
  c4803
  c4805
  c4806
  c4807
  c481
  c4810
  c4811
  c4812
  c4813
  c4814
  c4815
  c4816
  c4817
  c4818
  c4819
  c4820
  c4821
  c4822
  c4824
  c4827
  c4828
  c4830
  c4831
  c4832
  c4833
  c4834
  c4835
  c4836
  c4837
  c4838
  c4839
  c484
  c4840
  c4842
  c4843
  c4844
  c4847
  c4848
  c4849
  c485
  c4850
  c4851
  c4852
  c4853
  c4854
  c4855
  c4856
  c4857
  c4858
  c4859
  c4860
  c4861
  c4862
  c4865
  c4866
  c4867
  c4868
  c4869
  c487
  c4870
  c4871
  c4872
  c4873
  c4874
  c4875
  c4876
  c4877
  c4878
  c4879
  c488
  c4882
  c4883
  c4884
  c4885
  c4886
  c4887
  c4888
  c4889
  c4890
  c4891
  c4893
  c4894
  c4895
  c4896
  c49
  c490
  c4900
  c4902
  c4903
  c4904
  c4906
  c4907
  c4908
  c4909
  c491
  c4910
  c4911
  c4912
  c4913
  c4914
  c4917
  c4918
  c4919
  c4920
  c4921
  c4922
  c4923
  c4924
  c4925
  c4926
  c4927
  c4928
  c4929
  c493
  c4930
  c4931
  c4932
  c4933
  c4934
  c4935
  c494
  c4946
  c4947
  c4949
  c4950
  c4951
  c4952
  c4953
  c4954
  c4955
  c4957
  c4958
  c4959
  c4960
  c4961
  c4962
  c4963
  c4965
  c4966
  c4967
  c4968
  c4969
  c4970
  c4972
  c4973
  c4974
  c4975
  c4977
  c4978
  c4979
  c4980
  c4981
  c4983
  c4984
  c4985
  c4986
  c4987
  c4988
  c4989
  c4990
  c4991
  c4992
  c4993
  c4994
  c4995
  c4996
  c4997
  c4999
  c5
  c50
  c5001
  c5002
  c5003
  c5004
  c5005
  c5006
  c5007
  c5008
  c5009
  c5010
  c5011
  c5012
  c5013
  c5015
  c5016
  c5017
  c5018
  c502
  c5021
  c5022
  c5023
  c5024
  c5026
  c5027
  c5028
  c5029
  c503
  c5030
  c5031
  c5032
  c5033
  c5034
  c5035
  c5037
  c5038
  c5039
  c5041
  c5042
  c5043
  c5044
  c5045
  c5046
  c5047
  c5048
  c5049
  c505
  c5050
  c5052
  c5053
  c5054
  c5055
  c5058
  c5059
  c506
  c5060
  c5061
  c5062
  c5063
  c5064
  c5065
  c5066
  c5067
  c5068
  c5069
  c5070
  c5071
  c5072
  c5073
  c5076
  c5077
  c5078
  c5079
  c508
  c5080
  c5081
  c5082
  c5083
  c5084
  c5085
  c5086
  c5087
  c5088
  c5089
  c509
  c5090
  c5092
  c5093
  c5094
  c5095
  c5096
  c5097
  c5098
  c5099
  c5100
  c5101
  c5103
  c5104
  c5105
  c5106
  c5107
  c511
  c5111
  c5113
  c5114
  c5115
  c5116
  c5117
  c5118
  c5119
  c512
  c5120
  c5121
  c5122
  c5123
  c5124
  c5128
  c5129
  c5130
  c5131
  c5132
  c5133
  c5134
  c5135
  c5136
  c5137
  c5138
  c5139
  c514
  c5140
  c5141
  c5142
  c5143
  c5144
  c5145
  c5146
  c5157
  c5158
  c5160
  c5161
  c5162
  c5163
  c5164
  c5165
  c5167
  c5168
  c5169
  c517
  c5170
  c5171
  c5172
  c5173
  c5174
  c5176
  c5177
  c5178
  c5179
  c518
  c5180
  c5181
  c5182
  c5183
  c5184
  c5185
  c5187
  c5188
  c5189
  c5190
  c5192
  c5194
  c5195
  c5196
  c5197
  c5198
  c5199
  c52
  c520
  c5200
  c5201
  c5202
  c5203
  c5204
  c5205
  c5206
  c5207
  c5208
  c521
  c5210
  c5212
  c5213
  c5214
  c5215
  c5216
  c5217
  c5218
  c5219
  c5220
  c5221
  c5222
  c5223
  c5225
  c5226
  c5227
  c5228
  c5229
  c523
  c5232
  c5233
  c5234
  c5235
  c5236
  c5237
  c5238
  c5239
  c524
  c5240
  c5241
  c5242
  c5243
  c5244
  c5245
  c5246
  c5248
  c5249
  c5250
  c5252
  c5253
  c5254
  c5255
  c5256
  c5257
  c5258
  c5259
  c5260
  c5262
  c5263
  c5264
  c5265
  c5266
  c5269
  c5270
  c5271
  c5272
  c5273
  c5274
  c5275
  c5276
  c5277
  c5278
  c5279
  c5280
  c5281
  c5282
  c5283
  c5284
  c5287
  c5288
  c5289
  c5290
  c5291
  c5292
  c5293
  c5294
  c5295
  c5296
  c5297
  c5298
  c5299
  c53
  c5300
  c5301
  c5304
  c5305
  c5306
  c5307
  c5308
  c5309
  c5310
  c5311
  c5313
  c5314
  c5315
  c5316
  c5317
  c5318
  c532
  c5322
  c5324
  c5325
  c5326
  c5327
  c5328
  c5329
  c533
  c5330
  c5331
  c5332
  c5333
  c5334
  c5335
  c5339
  c5340
  c5341
  c5342
  c5343
  c5344
  c5345
  c5346
  c5347
  c5348
  c5349
  c535
  c5350
  c5351
  c5352
  c5353
  c5354
  c5355
  c5356
  c5357
  c536
  c5368
  c5369
  c5371
  c5372
  c5373
  c5374
  c5375
  c5377
  c5378
  c5379
  c538
  c5380
  c5381
  c5382
  c5383
  c5384
  c5385
  c5387
  c5388
  c5389
  c539
  c5390
  c5391
  c5392
  c5393
  c5394
  c5395
  c5397
  c5398
  c5399
  c5400
  c5401
  c5403
  c5404
  c5405
  c5406
  c5407
  c5408
  c5409
  c541
  c5410
  c5411
  c5412
  c5413
  c5414
  c5415
  c5416
  c5417
  c5418
  c5419
  c542
  c5421
  c5424
  c5425
  c5426
  c5427
  c5428
  c5429
  c5430
  c5431
  c5432
  c5433
  c5435
  c5436
  c5437
  c5438
  c5439
  c544
  c5440
  c5443
  c5444
  c5445
  c5446
  c5447
  c5448
  c5449
  c545
  c5450
  c5451
  c5452
  c5453
  c5454
  c5455
  c5457
  c5460
  c5461
  c5463
  c5464
  c5465
  c5466
  c5467
  c5468
  c5469
  c547
  c5470
  c5472
  c5473
  c5474
  c5475
  c5476
  c5477
  c5480
  c5481
  c5482
  c5483
  c5484
  c5485
  c5486
  c5487
  c5488
  c5489
  c5490
  c5491
  c5492
  c5493
  c5494
  c5495
  c5498
  c5499
  c55
  c550
  c5500
  c5501
  c5502
  c5503
  c5504
  c5505
  c5506
  c5507
  c5508
  c5509
  c551
  c5510
  c5511
  c5512
  c5515
  c5516
  c5517
  c5518
  c5519
  c5520
  c5521
  c5523
  c5524
  c5525
  c5526
  c5527
  c5528
  c5529
  c553
  c5533
  c5535
  c5536
  c5537
  c5538
  c5539
  c554
  c5540
  c5541
  c5542
  c5543
  c5544
  c5545
  c5546
  c5550
  c5551
  c5552
  c5553
  c5554
  c5555
  c5556
  c5557
  c5558
  c5559
  c5560
  c5561
  c5562
  c5563
  c5564
  c5565
  c5566
  c5567
  c5568
  c5579
  c5580
  c5582
  c5583
  c5584
  c5585
  c5587
  c5588
  c5589
  c5590
  c5591
  c5592
  c5593
  c5594
  c5595
  c5596
  c5598
  c5599
  c56
  c5600
  c5601
  c5602
  c5603
  c5604
  c5605
  c5607
  c5608
  c5609
  c5610
  c5611
  c5612
  c5614
  c5616
  c5617
  c5618
  c5619
  c562
  c5620
  c5621
  c5622
  c5623
  c5624
  c5625
  c5626
  c5627
  c5628
  c5629
  c563
  c5630
  c5632
  c5635
  c5636
  c5637
  c5638
  c5639
  c5640
  c5641
  c5642
  c5643
  c5645
  c5646
  c5647
  c5648
  c5649
  c565
  c5650
  c5651
  c5654
  c5655
  c5656
  c5657
  c5658
  c5659
  c566
  c5660
  c5661
  c5662
  c5663
  c5664
  c5665
  c5666
  c5668
  c5671
  c5672
  c5674
  c5675
  c5676
  c5677
  c5678
  c5679
  c568
  c5680
  c5682
  c5683
  c5684
  c5685
  c5686
  c5687
  c5688
  c569
  c5691
  c5692
  c5693
  c5694
  c5695
  c5696
  c5697
  c5698
  c5699
  c5700
  c5701
  c5702
  c5703
  c5704
  c5705
  c5706
  c5709
  c571
  c5710
  c5711
  c5712
  c5713
  c5714
  c5715
  c5716
  c5717
  c5718
  c5719
  c572
  c5720
  c5721
  c5722
  c5723
  c5726
  c5727
  c5728
  c5729
  c5730
  c5731
  c5733
  c5734
  c5735
  c5736
  c5737
  c5738
  c5739
  c574
  c5740
  c5744
  c5745
  c5746
  c5747
  c5748
  c5749
  c575
  c5750
  c5751
  c5752
  c5753
  c5754
  c5755
  c5756
  c5757
  c5761
  c5762
  c5763
  c5764
  c5765
  c5766
  c5767
  c5768
  c5769
  c577
  c5770
  c5771
  c5772
  c5773
  c5774
  c5775
  c5776
  c5777
  c5778
  c5779
  c578
  c5790
  c5791
  c5793
  c5794
  c5795
  c5797
  c5798
  c5799
  c58
  c580
  c5800
  c5801
  c5802
  c5803
  c5804
  c5805
  c5806
  c5807
  c5809
  c5810
  c5811
  c5812
  c5813
  c5814
  c5815
  c5817
  c5818
  c5819
  c5820
  c5821
  c5822
  c5823
  c5825
  c5827
  c5828
  c5829
  c583
  c5830
  c5831
  c5832
  c5833
  c5834
  c5835
  c5836
  c5837
  c5838
  c5839
  c584
  c5840
  c5841
  c5843
  c5846
  c5847
  c5848
  c5849
  c5850
  c5851
  c5852
  c5853
  c5855
  c5856
  c5857
  c5858
  c5859
  c5860
  c5861
  c5862
  c5865
  c5866
  c5867
  c5868
  c5869
  c5870
  c5871
  c5872
  c5873
  c5874
  c5875
  c5876
  c5877
  c5879
  c5882
  c5883
  c5885
  c5886
  c5887
  c5888
  c5889
  c5890
  c5892
  c5893
  c5894
  c5895
  c5896
  c5897
  c5898
  c5899
  c59
  c5902
  c5903
  c5904
  c5905
  c5906
  c5907
  c5908
  c5909
  c5910
  c5911
  c5912
  c5913
  c5914
  c5915
  c5916
  c5917
  c592
  c5920
  c5921
  c5922
  c5923
  c5924
  c5925
  c5926
  c5927
  c5928
  c5929
  c593
  c5930
  c5931
  c5932
  c5933
  c5934
  c5937
  c5938
  c5939
  c594
  c5940
  c5941
  c5943
  c5944
  c5945
  c5946
  c5947
  c5948
  c5949
  c5950
  c5951
  c596
  c5965
  c5967
  c5968
  c5969
  c597
  c5970
  c5971
  c5972
  c5973
  c5974
  c5975
  c5976
  c5977
  c5978
  c5988
  c5989
  c599
  c5990
  c5991
  c5992
  c5993
  c5994
  c5995
  c5996
  c5997
  c5998
  c5999
  c60
  c600
  c6000
  c6001
  c6002
  c6003
  c6004
  c6005
  c6006
  c6007
  c6012
  c6014
  c602
  c6029
  c603
  c6030
  c6039
  c6040
  c6045
  c6046
  c6047
  c6048
  c6049
  c6050
  c6051
  c6053
  c6054
  c6055
  c6056
  c6057
  c6058
  c6059
  c606
  c6060
  c6062
  c6063
  c6068
  c6069
  c607
  c6070
  c6071
  c6072
  c6073
  c6074
  c6075
  c6076
  c6077
  c6078
  c6079
  c6080
  c6081
  c6082
  c6083
  c6084
  c6085
  c6086
  c6087
  c6088
  c6089
  c609
  c6090
  c6091
  c6092
  c6093
  c6094
  c6095
  c6096
  c6097
  c6098
  c6099
  c610
  c6100
  c6103
  c6104
  c6105
  c6106
  c6107
  c6108
  c6109
  c6110
  c612
  c6129
  c613
  c6130
  c6134
  c6135
  c6138
  c6140
  c6142
  c6143
  c6145
  c6149
  c615
  c6151
  c6156
  c6158
  c616
  c6162
  c6163
  c6164
  c6165
  c6166
  c6167
  c62
  c620
  c621
  c623
  c624
  c626
  c627
  c629
  c63
  c630
  c632
  c633
  c638
  c639
  c64
  c641
  c642
  c644
  c645
  c647
  c648
  c650
  c651
  c653
  c654
  c66
  c660
  c661
  c663
  c664
  c666
  c667
  c669
  c67
  c670
  c672
  c673
  c675
  c676
  c678
  c679
  c68
  c686
  c687
  c689
  c690
  c692
  c693
  c695
  c696
  c698
  c699
  c70
  c701
  c702
  c704
  c705
  c71
  c73
  c743
  c744
  c745
  c746
  c747
  c748
  c75
  c750
  c751
  c752
  c753
  c754
  c755
  c756
  c76
  c763
  c765
  c766
  c769
  c77
  c770
  c773
  c774
  c777
  c778
  c78
  c781
  c782
  c785
  c786
  c789
  c79
  c790
  c793
  c794
  c795
  c798
  c799
  c80
  c800
  c803
  c804
  c805
  c808
  c809
  c81
  c810
  c813
  c814
  c815
  c818
  c819
  c82
  c820
  c823
  c824
  c825
  c828
  c829
  c83
  c830
  c831
  c836
  c838
  c839
  c84
  c844
  c846
  c847
  c85
  c852
  c854
  c855
  c86
  c860
  c861
  c862
  c863
  c868
  c870
  c871
  c878
  c88
  c881
  c882
  c884
  c886
  c888
  c89
  c890
  c892
  c893
  c9
  c903
  c91
  c926
  c927
  c928
  c929
  c930
  c931
  c932
  c940
  c948
  c949
  c95
  c950
  c951
  c952
  c953
  c954
  c956
  c957
  c960
  c961
  c964
  c965
  c968
  c969
  c972
  c973
  c976
  c977
  c980
  c981
  c984
  c985
  c993
  c994
  c997 )
